p wcnf 518 1552
w -2 0.367879 0
w 2 2.718282 0
w -3 0.367879 0
w 3 2.718282 0
w -4 0.367879 0
w 4 2.718282 0
w -5 0.367879 0
w 5 2.718282 0
w -6 0.367879 0
w 6 2.718282 0
w -7 0.367879 0
w 7 2.718282 0
w -8 0.367879 0
w 8 2.718282 0
w -10 0.367879 0
w 10 2.718282 0
w -11 0.367879 0
w 11 2.718282 0
w -12 0.367879 0
w 12 2.718282 0
w -13 0.367879 0
w 13 2.718282 0
w -14 0.367879 0
w 14 2.718282 0
w -15 0.367879 0
w 15 2.718282 0
w -17 0.367879 0
w 17 2.718282 0
w -18 0.367879 0
w 18 2.718282 0
w -19 0.367879 0
w 19 2.718282 0
w -20 0.367879 0
w 20 2.718282 0
w -22 0.367879 0
w 22 2.718282 0
w -23 0.367879 0
w 23 2.718282 0
w -24 0.367879 0
w 24 2.718282 0
w -25 0.367879 0
w 25 2.718282 0
w -26 0.367879 0
w 26 2.718282 0
w -27 0.367879 0
w 27 2.718282 0
w -28 0.367879 0
w 28 2.718282 0
w -29 0.367879 0
w 29 2.718282 0
w -30 0.367879 0
w 30 2.718282 0
w -31 0.367879 0
w 31 2.718282 0
w -32 0.367879 0
w 32 2.718282 0
w -33 0.367879 0
w 33 2.718282 0
w -35 0.367879 0
w 35 2.718282 0
w -36 0.367879 0
w 36 2.718282 0
w -37 0.367879 0
w 37 2.718282 0
w -38 0.367879 0
w 38 2.718282 0
w -39 0.367879 0
w 39 2.718282 0
w -40 0.367879 0
w 40 2.718282 0
w -41 0.367879 0
w 41 2.718282 0
w -43 0.367879 0
w 43 2.718282 0
w -44 0.367879 0
w 44 2.718282 0
w -45 0.367879 0
w 45 2.718282 0
w -46 0.367879 0
w 46 2.718282 0
w -47 0.367879 0
w 47 2.718282 0
w -49 0.367879 0
w 49 2.718282 0
w -50 0.367879 0
w 50 2.718282 0
w -51 0.367879 0
w 51 2.718282 0
w -52 0.367879 0
w 52 2.718282 0
w -53 0.367879 0
w 53 2.718282 0
w -55 0.367879 0
w 55 2.718282 0
w -56 0.367879 0
w 56 2.718282 0
w -57 0.367879 0
w 57 2.718282 0
w -58 0.367879 0
w 58 2.718282 0
w -59 0.367879 0
w 59 2.718282 0
w -61 0.367879 0
w 61 2.718282 0
w -62 0.367879 0
w 62 2.718282 0
w -63 0.367879 0
w 63 2.718282 0
w -64 0.367879 0
w 64 2.718282 0
w -65 0.367879 0
w 65 2.718282 0
w -66 0.367879 0
w 66 2.718282 0
w -67 0.367879 0
w 67 2.718282 0
w -68 0.367879 0
w 68 2.718282 0
w -69 0.367879 0
w 69 2.718282 0
w -71 0.367879 0
w 71 2.718282 0
w -72 0.367879 0
w 72 2.718282 0
w -73 0.367879 0
w 73 2.718282 0
w -75 0.367879 0
w 75 2.718282 0
w -76 0.367879 0
w 76 2.718282 0
w -77 0.367879 0
w 77 2.718282 0
w -78 0.367879 0
w 78 2.718282 0
w -79 0.367879 0
w 79 2.718282 0
w -80 0.367879 0
w 80 2.718282 0
w -81 0.367879 0
w 81 2.718282 0
w -83 0.367879 0
w 83 2.718282 0
w -84 0.367879 0
w 84 2.718282 0
w -85 0.367879 0
w 85 2.718282 0
w -86 0.367879 0
w 86 2.718282 0
w -87 0.367879 0
w 87 2.718282 0
w -88 0.367879 0
w 88 2.718282 0
w -89 0.367879 0
w 89 2.718282 0
w -91 0.367879 0
w 91 2.718282 0
w -92 0.367879 0
w 92 2.718282 0
w -93 0.367879 0
w 93 2.718282 0
w -94 0.367879 0
w 94 2.718282 0
w -95 0.367879 0
w 95 2.718282 0
w -96 0.367879 0
w 96 2.718282 0
w -97 0.367879 0
w 97 2.718282 0
w -99 0.367879 0
w 99 2.718282 0
w -100 0.367879 0
w 100 2.718282 0
w -101 0.367879 0
w 101 2.718282 0
w -103 0.367879 0
w 103 2.718282 0
w -104 0.367879 0
w 104 2.718282 0
w -105 0.367879 0
w 105 2.718282 0
w -107 0.367879 0
w 107 2.718282 0
w -109 0.367879 0
w 109 2.718282 0
w -110 0.367879 0
w 110 2.718282 0
w -111 0.367879 0
w 111 2.718282 0
w -112 0.367879 0
w 112 2.718282 0
w -113 0.367879 0
w 113 2.718282 0
w -114 0.367879 0
w 114 2.718282 0
w -115 0.367879 0
w 115 2.718282 0
w -117 0.367879 0
w 117 2.718282 0
w -118 0.367879 0
w 118 2.718282 0
w -119 0.367879 0
w 119 2.718282 0
w -120 0.367879 0
w 120 2.718282 0
w -121 0.367879 0
w 121 2.718282 0
w -122 0.367879 0
w 122 2.718282 0
w -123 0.367879 0
w 123 2.718282 0
w -125 0.367879 0
w 125 2.718282 0
w -126 0.367879 0
w 126 2.718282 0
w -127 0.367879 0
w 127 2.718282 0
w -129 0.367879 0
w 129 2.718282 0
w -130 0.367879 0
w 130 2.718282 0
w -131 0.367879 0
w 131 2.718282 0
w -132 0.367879 0
w 132 2.718282 0
w -133 0.367879 0
w 133 2.718282 0
w -135 0.367879 0
w 135 2.718282 0
w -136 0.367879 0
w 136 2.718282 0
w -137 0.367879 0
w 137 2.718282 0
w -138 0.367879 0
w 138 2.718282 0
w -139 0.367879 0
w 139 2.718282 0
w -140 0.367879 0
w 140 2.718282 0
w -141 0.367879 0
w 141 2.718282 0
w -143 0.367879 0
w 143 2.718282 0
w -144 0.367879 0
w 144 2.718282 0
w -145 0.367879 0
w 145 2.718282 0
w -147 0.367879 0
w 147 2.718282 0
w -148 0.367879 0
w 148 2.718282 0
w -150 0.367879 0
w 150 2.718282 0
w -151 0.367879 0
w 151 2.718282 0
w -153 0.367879 0
w 153 2.718282 0
w -154 0.367879 0
w 154 2.718282 0
w -155 0.367879 0
w 155 2.718282 0
w -156 0.367879 0
w 156 2.718282 0
w -157 0.367879 0
w 157 2.718282 0
w -159 0.367879 0
w 159 2.718282 0
w -160 0.367879 0
w 160 2.718282 0
w -161 0.367879 0
w 161 2.718282 0
w -162 0.367879 0
w 162 2.718282 0
w -163 0.367879 0
w 163 2.718282 0
w -164 0.367879 0
w 164 2.718282 0
w -166 0.367879 0
w 166 2.718282 0
w -167 0.367879 0
w 167 2.718282 0
w -168 0.367879 0
w 168 2.718282 0
w -169 0.367879 0
w 169 2.718282 0
w -170 0.367879 0
w 170 2.718282 0
w -171 0.367879 0
w 171 2.718282 0
w -172 0.367879 0
w 172 2.718282 0
w -173 0.367879 0
w 173 2.718282 0
w -175 0.367879 0
w 175 2.718282 0
w -177 0.367879 0
w 177 2.718282 0
w -178 0.367879 0
w 178 2.718282 0
w -180 0.367879 0
w 180 2.718282 0
w -181 0.367879 0
w 181 2.718282 0
w -183 0.367879 0
w 183 2.718282 0
w -184 0.367879 0
w 184 2.718282 0
w -186 0.367879 0
w 186 2.718282 0
w -187 0.367879 0
w 187 2.718282 0
w -188 0.367879 0
w 188 2.718282 0
w -189 0.367879 0
w 189 2.718282 0
w -190 0.367879 0
w 190 2.718282 0
w -191 0.367879 0
w 191 2.718282 0
w -193 0.367879 0
w 193 2.718282 0
w -194 0.367879 0
w 194 2.718282 0
w -195 0.367879 0
w 195 2.718282 0
w -196 0.367879 0
w 196 2.718282 0
w -197 0.367879 0
w 197 2.718282 0
w -199 0.367879 0
w 199 2.718282 0
w -200 0.367879 0
w 200 2.718282 0
w -201 0.367879 0
w 201 2.718282 0
w -202 0.367879 0
w 202 2.718282 0
w -203 0.367879 0
w 203 2.718282 0
w -204 0.367879 0
w 204 2.718282 0
w -206 0.367879 0
w 206 2.718282 0
w -207 0.367879 0
w 207 2.718282 0
w -208 0.367879 0
w 208 2.718282 0
w -209 0.367879 0
w 209 2.718282 0
w -210 0.367879 0
w 210 2.718282 0
w -212 0.367879 0
w 212 2.718282 0
w -213 0.367879 0
w 213 2.718282 0
w -215 0.367879 0
w 215 2.718282 0
w -216 0.367879 0
w 216 2.718282 0
w -217 0.367879 0
w 217 2.718282 0
w -219 0.367879 0
w 219 2.718282 0
w -220 0.367879 0
w 220 2.718282 0
w -221 0.367879 0
w 221 2.718282 0
w -222 0.367879 0
w 222 2.718282 0
w -223 0.367879 0
w 223 2.718282 0
w -224 0.367879 0
w 224 2.718282 0
w -226 0.367879 0
w 226 2.718282 0
w -227 0.367879 0
w 227 2.718282 0
w -228 0.367879 0
w 228 2.718282 0
w -229 0.367879 0
w 229 2.718282 0
w -230 0.367879 0
w 230 2.718282 0
w -231 0.367879 0
w 231 2.718282 0
w -232 0.367879 0
w 232 2.718282 0
w -233 0.367879 0
w 233 2.718282 0
w -234 0.367879 0
w 234 2.718282 0
w -235 0.367879 0
w 235 2.718282 0
w -237 0.367879 0
w 237 2.718282 0
w -238 0.367879 0
w 238 2.718282 0
w -239 0.367879 0
w 239 2.718282 0
w -240 0.367879 0
w 240 2.718282 0
w -241 0.367879 0
w 241 2.718282 0
w -242 0.367879 0
w 242 2.718282 0
w -243 0.367879 0
w 243 2.718282 0
w -245 0.367879 0
w 245 2.718282 0
w -246 0.367879 0
w 246 2.718282 0
w -247 0.367879 0
w 247 2.718282 0
w -248 0.367879 0
w 248 2.718282 0
w -250 0.367879 0
w 250 2.718282 0
w -251 0.367879 0
w 251 2.718282 0
w -252 0.367879 0
w 252 2.718282 0
w -254 0.367879 0
w 254 2.718282 0
w -255 0.367879 0
w 255 2.718282 0
w -256 0.367879 0
w 256 2.718282 0
w -257 0.367879 0
w 257 2.718282 0
w -258 0.367879 0
w 258 2.718282 0
w -259 0.367879 0
w 259 2.718282 0
w -261 0.367879 0
w 261 2.718282 0
w -262 0.367879 0
w 262 2.718282 0
w -263 0.367879 0
w 263 2.718282 0
w -264 0.367879 0
w 264 2.718282 0
w -265 0.367879 0
w 265 2.718282 0
w -267 0.367879 0
w 267 2.718282 0
w -268 0.367879 0
w 268 2.718282 0
w -269 0.367879 0
w 269 2.718282 0
w -271 0.367879 0
w 271 2.718282 0
w -272 0.367879 0
w 272 2.718282 0
w -273 0.367879 0
w 273 2.718282 0
w -275 0.367879 0
w 275 2.718282 0
w -276 0.367879 0
w 276 2.718282 0
w -278 0.367879 0
w 278 2.718282 0
w -279 0.367879 0
w 279 2.718282 0
w -280 0.367879 0
w 280 2.718282 0
w -281 0.367879 0
w 281 2.718282 0
w -283 0.367879 0
w 283 2.718282 0
w -284 0.367879 0
w 284 2.718282 0
w -285 0.367879 0
w 285 2.718282 0
w -286 0.367879 0
w 286 2.718282 0
w -288 0.367879 0
w 288 2.718282 0
w -289 0.367879 0
w 289 2.718282 0
w -290 0.367879 0
w 290 2.718282 0
w -291 0.367879 0
w 291 2.718282 0
w -292 0.367879 0
w 292 2.718282 0
w -293 0.367879 0
w 293 2.718282 0
w -296 0.367879 0
w 296 2.718282 0
w -298 0.367879 0
w 298 2.718282 0
w -299 0.367879 0
w 299 2.718282 0
w -300 0.367879 0
w 300 2.718282 0
w -301 0.367879 0
w 301 2.718282 0
w -302 0.367879 0
w 302 2.718282 0
w -303 0.367879 0
w 303 2.718282 0
w -304 0.367879 0
w 304 2.718282 0
w -306 0.367879 0
w 306 2.718282 0
w -307 0.367879 0
w 307 2.718282 0
w -308 0.367879 0
w 308 2.718282 0
w -309 0.367879 0
w 309 2.718282 0
w -310 0.367879 0
w 310 2.718282 0
w -311 0.367879 0
w 311 2.718282 0
w -312 0.367879 0
w 312 2.718282 0
w -314 0.367879 0
w 314 2.718282 0
w -315 0.367879 0
w 315 2.718282 0
w -317 0.367879 0
w 317 2.718282 0
w -318 0.367879 0
w 318 2.718282 0
w -319 0.367879 0
w 319 2.718282 0
w -320 0.367879 0
w 320 2.718282 0
w -322 0.367879 0
w 322 2.718282 0
w -323 0.367879 0
w 323 2.718282 0
w -324 0.367879 0
w 324 2.718282 0
w -325 0.367879 0
w 325 2.718282 0
w -327 0.367879 0
w 327 2.718282 0
w -328 0.367879 0
w 328 2.718282 0
w -329 0.367879 0
w 329 2.718282 0
w -330 0.367879 0
w 330 2.718282 0
w -331 0.367879 0
w 331 2.718282 0
w -333 0.367879 0
w 333 2.718282 0
w -335 0.367879 0
w 335 2.718282 0
w -336 0.367879 0
w 336 2.718282 0
w -337 0.367879 0
w 337 2.718282 0
w -339 0.367879 0
w 339 2.718282 0
w -340 0.367879 0
w 340 2.718282 0
w -342 0.367879 0
w 342 2.718282 0
w -344 0.367879 0
w 344 2.718282 0
w -345 0.367879 0
w 345 2.718282 0
w -346 0.367879 0
w 346 2.718282 0
w -347 0.367879 0
w 347 2.718282 0
w -349 0.367879 0
w 349 2.718282 0
w -350 0.367879 0
w 350 2.718282 0
w -351 0.367879 0
w 351 2.718282 0
w -353 0.367879 0
w 353 2.718282 0
w -354 0.367879 0
w 354 2.718282 0
w -355 0.367879 0
w 355 2.718282 0
w -357 0.367879 0
w 357 2.718282 0
w -358 0.367879 0
w 358 2.718282 0
w -359 0.367879 0
w 359 2.718282 0
w -360 0.367879 0
w 360 2.718282 0
w -361 0.367879 0
w 361 2.718282 0
w -362 0.367879 0
w 362 2.718282 0
w -364 0.367879 0
w 364 2.718282 0
w -365 0.367879 0
w 365 2.718282 0
w -366 0.367879 0
w 366 2.718282 0
w -369 0.367879 0
w 369 2.718282 0
w -370 0.367879 0
w 370 2.718282 0
w -371 0.367879 0
w 371 2.718282 0
w -373 0.367879 0
w 373 2.718282 0
w -375 0.367879 0
w 375 2.718282 0
w -377 0.367879 0
w 377 2.718282 0
w -378 0.367879 0
w 378 2.718282 0
w -380 0.367879 0
w 380 2.718282 0
w -381 0.367879 0
w 381 2.718282 0
w -382 0.367879 0
w 382 2.718282 0
w -383 0.367879 0
w 383 2.718282 0
w -384 0.367879 0
w 384 2.718282 0
w -386 0.367879 0
w 386 2.718282 0
w -387 0.367879 0
w 387 2.718282 0
w -388 0.367879 0
w 388 2.718282 0
w -390 0.367879 0
w 390 2.718282 0
w -391 0.367879 0
w 391 2.718282 0
w -392 0.367879 0
w 392 2.718282 0
w -394 0.367879 0
w 394 2.718282 0
w -395 0.367879 0
w 395 2.718282 0
w -396 0.367879 0
w 396 2.718282 0
w -397 0.367879 0
w 397 2.718282 0
w -398 0.367879 0
w 398 2.718282 0
w -400 0.367879 0
w 400 2.718282 0
w -401 0.367879 0
w 401 2.718282 0
w -402 0.367879 0
w 402 2.718282 0
w -404 0.367879 0
w 404 2.718282 0
w -405 0.367879 0
w 405 2.718282 0
w -406 0.367879 0
w 406 2.718282 0
w -408 0.367879 0
w 408 2.718282 0
w -410 0.367879 0
w 410 2.718282 0
w -411 0.367879 0
w 411 2.718282 0
w -413 0.367879 0
w 413 2.718282 0
w -414 0.367879 0
w 414 2.718282 0
w -415 0.367879 0
w 415 2.718282 0
w -416 0.367879 0
w 416 2.718282 0
w -419 0.367879 0
w 419 2.718282 0
w -422 0.367879 0
w 422 2.718282 0
w -423 0.367879 0
w 423 2.718282 0
w -425 0.367879 0
w 425 2.718282 0
w -426 0.367879 0
w 426 2.718282 0
w -428 0.367879 0
w 428 2.718282 0
w -429 0.367879 0
w 429 2.718282 0
w -430 0.367879 0
w 430 2.718282 0
w -432 0.367879 0
w 432 2.718282 0
w -433 0.367879 0
w 433 2.718282 0
w -434 0.367879 0
w 434 2.718282 0
w -436 0.367879 0
w 436 2.718282 0
w -437 0.367879 0
w 437 2.718282 0
w -438 0.367879 0
w 438 2.718282 0
w -442 0.367879 0
w 442 2.718282 0
w -445 0.367879 0
w 445 2.718282 0
w -446 0.367879 0
w 446 2.718282 0
w -447 0.367879 0
w 447 2.718282 0
w -449 0.367879 0
w 449 2.718282 0
w -450 0.367879 0
w 450 2.718282 0
w -451 0.367879 0
w 451 2.718282 0
w -453 0.367879 0
w 453 2.718282 0
w -454 0.367879 0
w 454 2.718282 0
w -455 0.367879 0
w 455 2.718282 0
w -456 0.367879 0
w 456 2.718282 0
w -458 0.367879 0
w 458 2.718282 0
w -460 0.367879 0
w 460 2.718282 0
w -462 0.367879 0
w 462 2.718282 0
w -463 0.367879 0
w 463 2.718282 0
w -465 0.367879 0
w 465 2.718282 0
w -466 0.367879 0
w 466 2.718282 0
w -467 0.367879 0
w 467 2.718282 0
w -469 0.367879 0
w 469 2.718282 0
w -471 0.367879 0
w 471 2.718282 0
w -473 0.367879 0
w 473 2.718282 0
w -476 0.367879 0
w 476 2.718282 0
w -478 0.367879 0
w 478 2.718282 0
w -479 0.367879 0
w 479 2.718282 0
w -480 0.367879 0
w 480 2.718282 0
w -482 0.367879 0
w 482 2.718282 0
w -484 0.367879 0
w 484 2.718282 0
w -486 0.367879 0
w 486 2.718282 0
w -488 0.367879 0
w 488 2.718282 0
w -489 0.367879 0
w 489 2.718282 0
w -491 0.367879 0
w 491 2.718282 0
w -492 0.367879 0
w 492 2.718282 0
w -494 0.367879 0
w 494 2.718282 0
w -499 0.367879 0
w 499 2.718282 0
w -500 0.367879 0
w 500 2.718282 0
w -501 0.367879 0
w 501 2.718282 0
w -506 0.367879 0
w 506 2.718282 0
w -507 0.367879 0
w 507 2.718282 0
w -511 0.367879 0
w 511 2.718282 0
2 1 128 0
2 -1 -128 0
-2 1 -128 0
-2 -1 128 0
3 1 134 0
3 -1 -134 0
-3 1 -134 0
-3 -1 134 0
4 1 192 0
4 -1 -192 0
-4 1 -192 0
-4 -1 192 0
5 1 348 0
5 -1 -348 0
-5 1 -348 0
-5 -1 348 0
6 1 424 0
6 -1 -424 0
-6 1 -424 0
-6 -1 424 0
7 1 443 0
7 -1 -443 0
-7 1 -443 0
-7 -1 443 0
8 1 498 0
8 -1 -498 0
-8 1 -498 0
-8 -1 498 0
10 9 260 0
10 -9 -260 0
-10 9 -260 0
-10 -9 260 0
11 9 270 0
11 -9 -270 0
-11 9 -270 0
-11 -9 270 0
12 9 297 0
12 -9 -297 0
-12 9 -297 0
-12 -9 297 0
13 9 332 0
13 -9 -332 0
-13 9 -332 0
-13 -9 332 0
14 9 496 0
14 -9 -496 0
-14 9 -496 0
-14 -9 496 0
15 9 504 0
15 -9 -504 0
-15 9 -504 0
-15 -9 504 0
17 16 74 0
17 -16 -74 0
-17 16 -74 0
-17 -16 74 0
18 16 176 0
18 -16 -176 0
-18 16 -176 0
-18 -16 176 0
19 16 274 0
19 -16 -274 0
-19 16 -274 0
-19 -16 274 0
20 16 464 0
20 -16 -464 0
-20 16 -464 0
-20 -16 464 0
22 21 60 0
22 -21 -60 0
-22 21 -60 0
-22 -21 60 0
23 21 198 0
23 -21 -198 0
-23 21 -198 0
-23 -21 198 0
24 21 266 0
24 -21 -266 0
-24 21 -266 0
-24 -21 266 0
25 21 399 0
25 -21 -399 0
-25 21 -399 0
-25 -21 399 0
26 21 418 0
26 -21 -418 0
-26 21 -418 0
-26 -21 418 0
27 21 421 0
27 -21 -421 0
-27 21 -421 0
-27 -21 421 0
28 21 431 0
28 -21 -431 0
-28 21 -431 0
-28 -21 431 0
29 21 444 0
29 -21 -444 0
-29 21 -444 0
-29 -21 444 0
30 21 474 0
30 -21 -474 0
-30 21 -474 0
-30 -21 474 0
31 21 477 0
31 -21 -477 0
-31 21 -477 0
-31 -21 477 0
32 21 504 0
32 -21 -504 0
-32 21 -504 0
-32 -21 504 0
33 21 516 0
33 -21 -516 0
-33 21 -516 0
-33 -21 516 0
35 34 134 0
35 -34 -134 0
-35 34 -134 0
-35 -34 134 0
36 34 334 0
36 -34 -334 0
-36 34 -334 0
-36 -34 334 0
37 34 352 0
37 -34 -352 0
-37 34 -352 0
-37 -34 352 0
38 34 431 0
38 -34 -431 0
-38 34 -431 0
-38 -34 431 0
39 34 435 0
39 -34 -435 0
-39 34 -435 0
-39 -34 435 0
40 34 457 0
40 -34 -457 0
-40 34 -457 0
-40 -34 457 0
41 34 483 0
41 -34 -483 0
-41 34 -483 0
-41 -34 483 0
43 42 174 0
43 -42 -174 0
-43 42 -174 0
-43 -42 174 0
44 42 282 0
44 -42 -282 0
-44 42 -282 0
-44 -42 282 0
45 42 332 0
45 -42 -332 0
-45 42 -332 0
-45 -42 332 0
46 42 420 0
46 -42 -420 0
-46 42 -420 0
-46 -42 420 0
47 42 459 0
47 -42 -459 0
-47 42 -459 0
-47 -42 459 0
49 48 253 0
49 -48 -253 0
-49 48 -253 0
-49 -48 253 0
50 48 341 0
50 -48 -341 0
-50 48 -341 0
-50 -48 341 0
51 48 399 0
51 -48 -399 0
-51 48 -399 0
-51 -48 399 0
52 48 470 0
52 -48 -470 0
-52 48 -470 0
-52 -48 470 0
53 48 513 0
53 -48 -513 0
-53 48 -513 0
-53 -48 513 0
55 54 149 0
55 -54 -149 0
-55 54 -149 0
-55 -54 149 0
56 54 179 0
56 -54 -179 0
-56 54 -179 0
-56 -54 179 0
57 54 431 0
57 -54 -431 0
-57 54 -431 0
-57 -54 431 0
58 54 485 0
58 -54 -485 0
-58 54 -485 0
-58 -54 485 0
59 54 518 0
59 -54 -518 0
-59 54 -518 0
-59 -54 518 0
61 60 82 0
61 -60 -82 0
-61 60 -82 0
-61 -60 82 0
62 60 149 0
62 -60 -149 0
-62 60 -149 0
-62 -60 149 0
63 60 165 0
63 -60 -165 0
-63 60 -165 0
-63 -60 165 0
64 60 214 0
64 -60 -214 0
-64 60 -214 0
-64 -60 214 0
65 60 274 0
65 -60 -274 0
-65 60 -274 0
-65 -60 274 0
66 60 313 0
66 -60 -313 0
-66 60 -313 0
-66 -60 313 0
67 60 376 0
67 -60 -376 0
-67 60 -376 0
-67 -60 376 0
68 60 481 0
68 -60 -481 0
-68 60 -481 0
-68 -60 481 0
69 60 490 0
69 -60 -490 0
-69 60 -490 0
-69 -60 490 0
71 70 185 0
71 -70 -185 0
-71 70 -185 0
-71 -70 185 0
72 70 372 0
72 -70 -372 0
-72 70 -372 0
-72 -70 372 0
73 70 407 0
73 -70 -407 0
-73 70 -407 0
-73 -70 407 0
75 74 236 0
75 -74 -236 0
-75 74 -236 0
-75 -74 236 0
76 74 348 0
76 -74 -348 0
-76 74 -348 0
-76 -74 348 0
77 74 403 0
77 -74 -403 0
-77 74 -403 0
-77 -74 403 0
78 74 417 0
78 -74 -417 0
-78 74 -417 0
-78 -74 417 0
79 74 420 0
79 -74 -420 0
-79 74 -420 0
-79 -74 420 0
80 74 495 0
80 -74 -495 0
-80 74 -495 0
-80 -74 495 0
81 74 498 0
81 -74 -498 0
-81 74 -498 0
-81 -74 498 0
83 82 249 0
83 -82 -249 0
-83 82 -249 0
-83 -82 249 0
84 82 313 0
84 -82 -313 0
-84 82 -313 0
-84 -82 313 0
85 82 334 0
85 -82 -334 0
-85 82 -334 0
-85 -82 334 0
86 82 399 0
86 -82 -399 0
-86 82 -399 0
-86 -82 399 0
87 82 418 0
87 -82 -418 0
-87 82 -418 0
-87 -82 418 0
88 82 439 0
88 -82 -439 0
-88 82 -439 0
-88 -82 439 0
89 82 513 0
89 -82 -513 0
-89 82 -513 0
-89 -82 513 0
91 90 149 0
91 -90 -149 0
-91 90 -149 0
-91 -90 149 0
92 90 274 0
92 -90 -274 0
-92 90 -274 0
-92 -90 274 0
93 90 277 0
93 -90 -277 0
-93 90 -277 0
-93 -90 277 0
94 90 313 0
94 -90 -313 0
-94 90 -313 0
-94 -90 313 0
95 90 341 0
95 -90 -341 0
-95 90 -341 0
-95 -90 341 0
96 90 374 0
96 -90 -374 0
-96 90 -374 0
-96 -90 374 0
97 90 440 0
97 -90 -440 0
-97 90 -440 0
-97 -90 440 0
99 98 174 0
99 -98 -174 0
-99 98 -174 0
-99 -98 174 0
100 98 214 0
100 -98 -214 0
-100 98 -214 0
-100 -98 214 0
101 98 444 0
101 -98 -444 0
-101 98 -444 0
-101 -98 444 0
103 102 192 0
103 -102 -192 0
-103 102 -192 0
-103 -102 192 0
104 102 236 0
104 -102 -236 0
-104 102 -236 0
-104 -102 236 0
105 102 376 0
105 -102 -376 0
-105 102 -376 0
-105 -102 376 0
107 106 407 0
107 -106 -407 0
-107 106 -407 0
-107 -106 407 0
109 108 116 0
109 -108 -116 0
-109 108 -116 0
-109 -108 116 0
110 108 277 0
110 -108 -277 0
-110 108 -277 0
-110 -108 277 0
111 108 338 0
111 -108 -338 0
-111 108 -338 0
-111 -108 338 0
112 108 352 0
112 -108 -352 0
-112 108 -352 0
-112 -108 352 0
113 108 393 0
113 -108 -393 0
-113 108 -393 0
-113 -108 393 0
114 108 468 0
114 -108 -468 0
-114 108 -468 0
-114 -108 468 0
115 108 513 0
115 -108 -513 0
-115 108 -513 0
-115 -108 513 0
117 116 236 0
117 -116 -236 0
-117 116 -236 0
-117 -116 236 0
118 116 253 0
118 -116 -253 0
-118 116 -253 0
-118 -116 253 0
119 116 277 0
119 -116 -277 0
-119 116 -277 0
-119 -116 277 0
120 116 374 0
120 -116 -374 0
-120 116 -374 0
-120 -116 374 0
121 116 420 0
121 -116 -420 0
-121 116 -420 0
-121 -116 420 0
122 116 493 0
122 -116 -493 0
-122 116 -493 0
-122 -116 493 0
123 116 513 0
123 -116 -513 0
-123 116 -513 0
-123 -116 513 0
125 124 214 0
125 -124 -214 0
-125 124 -214 0
-125 -124 214 0
126 124 412 0
126 -124 -412 0
-126 124 -412 0
-126 -124 412 0
127 124 496 0
127 -124 -496 0
-127 124 -496 0
-127 -124 496 0
129 128 185 0
129 -128 -185 0
-129 128 -185 0
-129 -128 185 0
130 128 277 0
130 -128 -277 0
-130 128 -277 0
-130 -128 277 0
131 128 356 0
131 -128 -356 0
-131 128 -356 0
-131 -128 356 0
132 128 431 0
132 -128 -431 0
-132 128 -431 0
-132 -128 431 0
133 128 472 0
133 -128 -472 0
-133 128 -472 0
-133 -128 472 0
135 134 260 0
135 -134 -260 0
-135 134 -260 0
-135 -134 260 0
136 134 294 0
136 -134 -294 0
-136 134 -294 0
-136 -134 294 0
137 134 420 0
137 -134 -420 0
-137 134 -420 0
-137 -134 420 0
138 134 440 0
138 -134 -440 0
-138 134 -440 0
-138 -134 440 0
139 134 477 0
139 -134 -477 0
-139 134 -477 0
-139 -134 477 0
140 134 487 0
140 -134 -487 0
-140 134 -487 0
-140 -134 487 0
141 134 514 0
141 -134 -514 0
-141 134 -514 0
-141 -134 514 0
143 142 218 0
143 -142 -218 0
-143 142 -218 0
-143 -142 218 0
144 142 477 0
144 -142 -477 0
-144 142 -477 0
-144 -142 477 0
145 142 495 0
145 -142 -495 0
-145 142 -495 0
-145 -142 495 0
147 146 316 0
147 -146 -316 0
-147 146 -316 0
-147 -146 316 0
148 146 427 0
148 -146 -427 0
-148 146 -427 0
-148 -146 427 0
150 149 270 0
150 -149 -270 0
-150 149 -270 0
-150 -149 270 0
151 149 376 0
151 -149 -376 0
-151 149 -376 0
-151 -149 376 0
153 152 198 0
153 -152 -198 0
-153 152 -198 0
-153 -152 198 0
154 152 236 0
154 -152 -236 0
-154 152 -236 0
-154 -152 236 0
155 152 282 0
155 -152 -282 0
-155 152 -282 0
-155 -152 282 0
156 152 424 0
156 -152 -424 0
-156 152 -424 0
-156 -152 424 0
157 152 461 0
157 -152 -461 0
-157 152 -461 0
-157 -152 461 0
159 158 389 0
159 -158 -389 0
-159 158 -389 0
-159 -158 389 0
160 158 399 0
160 -158 -399 0
-160 158 -399 0
-160 -158 399 0
161 158 448 0
161 -158 -448 0
-161 158 -448 0
-161 -158 448 0
162 158 475 0
162 -158 -475 0
-162 158 -475 0
-162 -158 475 0
163 158 487 0
163 -158 -487 0
-163 158 -487 0
-163 -158 487 0
164 158 505 0
164 -158 -505 0
-164 158 -505 0
-164 -158 505 0
166 165 214 0
166 -165 -214 0
-166 165 -214 0
-166 -165 214 0
167 165 244 0
167 -165 -244 0
-167 165 -244 0
-167 -165 244 0
168 165 313 0
168 -165 -313 0
-168 165 -313 0
-168 -165 313 0
169 165 368 0
169 -165 -368 0
-169 165 -368 0
-169 -165 368 0
170 165 457 0
170 -165 -457 0
-170 165 -457 0
-170 -165 457 0
171 165 475 0
171 -165 -475 0
-171 165 -475 0
-171 -165 475 0
172 165 481 0
172 -165 -481 0
-172 165 -481 0
-172 -165 481 0
173 165 483 0
173 -165 -483 0
-173 165 -483 0
-173 -165 483 0
175 174 459 0
175 -174 -459 0
-175 174 -459 0
-175 -174 459 0
177 176 321 0
177 -176 -321 0
-177 176 -321 0
-177 -176 321 0
178 176 421 0
178 -176 -421 0
-178 176 -421 0
-178 -176 421 0
180 179 249 0
180 -179 -249 0
-180 179 -249 0
-180 -179 249 0
181 179 510 0
181 -179 -510 0
-181 179 -510 0
-181 -179 510 0
183 182 474 0
183 -182 -474 0
-183 182 -474 0
-183 -182 474 0
184 182 485 0
184 -182 -485 0
-184 182 -485 0
-184 -182 485 0
186 185 214 0
186 -185 -214 0
-186 185 -214 0
-186 -185 214 0
187 185 294 0
187 -185 -294 0
-187 185 -294 0
-187 -185 294 0
188 185 374 0
188 -185 -374 0
-188 185 -374 0
-188 -185 374 0
189 185 379 0
189 -185 -379 0
-189 185 -379 0
-189 -185 379 0
190 185 439 0
190 -185 -439 0
-190 185 -439 0
-190 -185 439 0
191 185 493 0
191 -185 -493 0
-191 185 -493 0
-191 -185 493 0
193 192 211 0
193 -192 -211 0
-193 192 -211 0
-193 -192 211 0
194 192 332 0
194 -192 -332 0
-194 192 -332 0
-194 -192 332 0
195 192 348 0
195 -192 -348 0
-195 192 -348 0
-195 -192 348 0
196 192 372 0
196 -192 -372 0
-196 192 -372 0
-196 -192 372 0
197 192 431 0
197 -192 -431 0
-197 192 -431 0
-197 -192 431 0
199 198 341 0
199 -198 -341 0
-199 198 -341 0
-199 -198 341 0
200 198 348 0
200 -198 -348 0
-200 198 -348 0
-200 -198 348 0
201 198 367 0
201 -198 -367 0
-201 198 -367 0
-201 -198 367 0
202 198 412 0
202 -198 -412 0
-202 198 -412 0
-202 -198 412 0
203 198 503 0
203 -198 -503 0
-203 198 -503 0
-203 -198 503 0
204 198 514 0
204 -198 -514 0
-204 198 -514 0
-204 -198 514 0
206 205 297 0
206 -205 -297 0
-206 205 -297 0
-206 -205 297 0
207 205 348 0
207 -205 -348 0
-207 205 -348 0
-207 -205 348 0
208 205 477 0
208 -205 -477 0
-208 205 -477 0
-208 -205 477 0
209 205 497 0
209 -205 -497 0
-209 205 -497 0
-209 -205 497 0
210 205 503 0
210 -205 -503 0
-210 205 -503 0
-210 -205 503 0
212 211 352 0
212 -211 -352 0
-212 211 -352 0
-212 -211 352 0
213 211 493 0
213 -211 -493 0
-213 211 -493 0
-213 -211 493 0
215 214 260 0
215 -214 -260 0
-215 214 -260 0
-215 -214 260 0
216 214 498 0
216 -214 -498 0
-216 214 -498 0
-216 -214 498 0
217 214 518 0
217 -214 -518 0
-217 214 -518 0
-217 -214 518 0
219 218 266 0
219 -218 -266 0
-219 218 -266 0
-219 -218 266 0
220 218 316 0
220 -218 -316 0
-220 218 -316 0
-220 -218 316 0
221 218 385 0
221 -218 -385 0
-221 218 -385 0
-221 -218 385 0
222 218 403 0
222 -218 -403 0
-222 218 -403 0
-222 -218 403 0
223 218 481 0
223 -218 -481 0
-223 218 -481 0
-223 -218 481 0
224 218 517 0
224 -218 -517 0
-224 218 -517 0
-224 -218 517 0
226 225 297 0
226 -225 -297 0
-226 225 -297 0
-226 -225 297 0
227 225 374 0
227 -225 -374 0
-227 225 -374 0
-227 -225 374 0
228 225 399 0
228 -225 -399 0
-228 225 -399 0
-228 -225 399 0
229 225 435 0
229 -225 -435 0
-229 225 -435 0
-229 -225 435 0
230 225 444 0
230 -225 -444 0
-230 225 -444 0
-230 -225 444 0
231 225 448 0
231 -225 -448 0
-231 225 -448 0
-231 -225 448 0
232 225 461 0
232 -225 -461 0
-232 225 -461 0
-232 -225 461 0
233 225 481 0
233 -225 -481 0
-233 225 -481 0
-233 -225 481 0
234 225 493 0
234 -225 -493 0
-234 225 -493 0
-234 -225 493 0
235 225 517 0
235 -225 -517 0
-235 225 -517 0
-235 -225 517 0
237 236 297 0
237 -236 -297 0
-237 236 -297 0
-237 -236 297 0
238 236 332 0
238 -236 -332 0
-238 236 -332 0
-238 -236 332 0
239 236 338 0
239 -236 -338 0
-239 236 -338 0
-239 -236 338 0
240 236 368 0
240 -236 -368 0
-240 236 -368 0
-240 -236 368 0
241 236 439 0
241 -236 -439 0
-241 236 -439 0
-241 -236 439 0
242 236 496 0
242 -236 -496 0
-242 236 -496 0
-242 -236 496 0
243 236 512 0
243 -236 -512 0
-243 236 -512 0
-243 -236 512 0
245 244 294 0
245 -244 -294 0
-245 244 -294 0
-245 -244 294 0
246 244 472 0
246 -244 -472 0
-246 244 -472 0
-246 -244 472 0
247 244 508 0
247 -244 -508 0
-247 244 -508 0
-247 -244 508 0
248 244 510 0
248 -244 -510 0
-248 244 -510 0
-248 -244 510 0
250 249 472 0
250 -249 -472 0
-250 249 -472 0
-250 -249 472 0
251 249 512 0
251 -249 -512 0
-251 249 -512 0
-251 -249 512 0
252 249 516 0
252 -249 -516 0
-252 249 -516 0
-252 -249 516 0
254 253 274 0
254 -253 -274 0
-254 253 -274 0
-254 -253 274 0
255 253 282 0
255 -253 -282 0
-255 253 -282 0
-255 -253 282 0
256 253 294 0
256 -253 -294 0
-256 253 -294 0
-256 -253 294 0
257 253 313 0
257 -253 -313 0
-257 253 -313 0
-257 -253 313 0
258 253 403 0
258 -253 -403 0
-258 253 -403 0
-258 -253 403 0
259 253 481 0
259 -253 -481 0
-259 253 -481 0
-259 -253 481 0
261 260 266 0
261 -260 -266 0
-261 260 -266 0
-261 -260 266 0
262 260 363 0
262 -260 -363 0
-262 260 -363 0
-262 -260 363 0
263 260 421 0
263 -260 -421 0
-263 260 -421 0
-263 -260 421 0
264 260 441 0
264 -260 -441 0
-264 260 -441 0
-264 -260 441 0
265 260 483 0
265 -260 -483 0
-265 260 -483 0
-265 -260 483 0
267 266 341 0
267 -266 -341 0
-267 266 -341 0
-267 -266 341 0
268 266 418 0
268 -266 -418 0
-268 266 -418 0
-268 -266 418 0
269 266 495 0
269 -266 -495 0
-269 266 -495 0
-269 -266 495 0
271 270 332 0
271 -270 -332 0
-271 270 -332 0
-271 -270 332 0
272 270 393 0
272 -270 -393 0
-272 270 -393 0
-272 -270 393 0
273 270 513 0
273 -270 -513 0
-273 270 -513 0
-273 -270 513 0
275 274 495 0
275 -274 -495 0
-275 274 -495 0
-275 -274 495 0
276 274 509 0
276 -274 -509 0
-276 274 -509 0
-276 -274 509 0
278 277 368 0
278 -277 -368 0
-278 277 -368 0
-278 -277 368 0
279 277 374 0
279 -277 -374 0
-279 277 -374 0
-279 -277 374 0
280 277 376 0
280 -277 -376 0
-280 277 -376 0
-280 -277 376 0
281 277 475 0
281 -277 -475 0
-281 277 -475 0
-281 -277 475 0
283 282 352 0
283 -282 -352 0
-283 282 -352 0
-283 -282 352 0
284 282 368 0
284 -282 -368 0
-284 282 -368 0
-284 -282 368 0
285 282 418 0
285 -282 -418 0
-285 282 -418 0
-285 -282 418 0
286 282 516 0
286 -282 -516 0
-286 282 -516 0
-286 -282 516 0
288 287 316 0
288 -287 -316 0
-288 287 -316 0
-288 -287 316 0
289 287 374 0
289 -287 -374 0
-289 287 -374 0
-289 -287 374 0
290 287 459 0
290 -287 -459 0
-290 287 -459 0
-290 -287 459 0
291 287 475 0
291 -287 -475 0
-291 287 -475 0
-291 -287 475 0
292 287 510 0
292 -287 -510 0
-292 287 -510 0
-292 -287 510 0
293 287 518 0
293 -287 -518 0
-293 287 -518 0
-293 -287 518 0
296 295 475 0
296 -295 -475 0
-296 295 -475 0
-296 -295 475 0
298 297 305 0
298 -297 -305 0
-298 297 -305 0
-298 -297 305 0
299 297 332 0
299 -297 -332 0
-299 297 -332 0
-299 -297 332 0
300 297 341 0
300 -297 -341 0
-300 297 -341 0
-300 -297 341 0
301 297 348 0
301 -297 -348 0
-301 297 -348 0
-301 -297 348 0
302 297 407 0
302 -297 -407 0
-302 297 -407 0
-302 -297 407 0
303 297 481 0
303 -297 -481 0
-303 297 -481 0
-303 -297 481 0
304 297 513 0
304 -297 -513 0
-304 297 -513 0
-304 -297 513 0
306 305 374 0
306 -305 -374 0
-306 305 -374 0
-306 -305 374 0
307 305 376 0
307 -305 -376 0
-307 305 -376 0
-307 -305 376 0
308 305 385 0
308 -305 -385 0
-308 305 -385 0
-308 -305 385 0
309 305 457 0
309 -305 -457 0
-309 305 -457 0
-309 -305 457 0
310 305 493 0
310 -305 -493 0
-310 305 -493 0
-310 -305 493 0
311 305 503 0
311 -305 -503 0
-311 305 -503 0
-311 -305 503 0
312 305 516 0
312 -305 -516 0
-312 305 -516 0
-312 -305 516 0
314 313 481 0
314 -313 -481 0
-314 313 -481 0
-314 -313 481 0
315 313 498 0
315 -313 -498 0
-315 313 -498 0
-315 -313 498 0
317 316 417 0
317 -316 -417 0
-317 316 -417 0
-317 -316 417 0
318 316 461 0
318 -316 -461 0
-318 316 -461 0
-318 -316 461 0
319 316 475 0
319 -316 -475 0
-319 316 -475 0
-319 -316 475 0
320 316 514 0
320 -316 -514 0
-320 316 -514 0
-320 -316 514 0
322 321 367 0
322 -321 -367 0
-322 321 -367 0
-322 -321 367 0
323 321 452 0
323 -321 -452 0
-323 321 -452 0
-323 -321 452 0
324 321 493 0
324 -321 -493 0
-324 321 -493 0
-324 -321 493 0
325 321 502 0
325 -321 -502 0
-325 321 -502 0
-325 -321 502 0
327 326 368 0
327 -326 -368 0
-327 326 -368 0
-327 -326 368 0
328 326 376 0
328 -326 -376 0
-328 326 -376 0
-328 -326 376 0
329 326 441 0
329 -326 -441 0
-329 326 -441 0
-329 -326 441 0
330 326 509 0
330 -326 -509 0
-330 326 -509 0
-330 -326 509 0
331 326 510 0
331 -326 -510 0
-331 326 -510 0
-331 -326 510 0
333 332 510 0
333 -332 -510 0
-333 332 -510 0
-333 -332 510 0
335 334 441 0
335 -334 -441 0
-335 334 -441 0
-335 -334 441 0
336 334 477 0
336 -334 -477 0
-336 334 -477 0
-336 -334 477 0
337 334 502 0
337 -334 -502 0
-337 334 -502 0
-337 -334 502 0
339 338 356 0
339 -338 -356 0
-339 338 -356 0
-339 -338 356 0
340 338 516 0
340 -338 -516 0
-340 338 -516 0
-340 -338 516 0
342 341 495 0
342 -341 -495 0
-342 341 -495 0
-342 -341 495 0
344 343 352 0
344 -343 -352 0
-344 343 -352 0
-344 -343 352 0
345 343 439 0
345 -343 -439 0
-345 343 -439 0
-345 -343 439 0
346 343 495 0
346 -343 -495 0
-346 343 -495 0
-346 -343 495 0
347 343 518 0
347 -343 -518 0
-347 343 -518 0
-347 -343 518 0
349 348 418 0
349 -348 -418 0
-349 348 -418 0
-349 -348 418 0
350 348 504 0
350 -348 -504 0
-350 348 -504 0
-350 -348 504 0
351 348 510 0
351 -348 -510 0
-351 348 -510 0
-351 -348 510 0
353 352 374 0
353 -352 -374 0
-353 352 -374 0
-353 -352 374 0
354 352 399 0
354 -352 -399 0
-354 352 -399 0
-354 -352 399 0
355 352 440 0
355 -352 -440 0
-355 352 -440 0
-355 -352 440 0
357 356 421 0
357 -356 -421 0
-357 356 -421 0
-357 -356 421 0
358 356 461 0
358 -356 -461 0
-358 356 -461 0
-358 -356 461 0
359 356 477 0
359 -356 -477 0
-359 356 -477 0
-359 -356 477 0
360 356 498 0
360 -356 -498 0
-360 356 -498 0
-360 -356 498 0
361 356 510 0
361 -356 -510 0
-361 356 -510 0
-361 -356 510 0
362 356 515 0
362 -356 -515 0
-362 356 -515 0
-362 -356 515 0
364 363 385 0
364 -363 -385 0
-364 363 -385 0
-364 -363 385 0
365 363 440 0
365 -363 -440 0
-365 363 -440 0
-365 -363 440 0
366 363 495 0
366 -363 -495 0
-366 363 -495 0
-366 -363 495 0
369 368 407 0
369 -368 -407 0
-369 368 -407 0
-369 -368 407 0
370 368 475 0
370 -368 -475 0
-370 368 -475 0
-370 -368 475 0
371 368 515 0
371 -368 -515 0
-371 368 -515 0
-371 -368 515 0
373 372 376 0
373 -372 -376 0
-373 372 -376 0
-373 -372 376 0
375 374 409 0
375 -374 -409 0
-375 374 -409 0
-375 -374 409 0
377 376 409 0
377 -376 -409 0
-377 376 -409 0
-377 -376 409 0
378 376 435 0
378 -376 -435 0
-378 376 -435 0
-378 -376 435 0
380 379 418 0
380 -379 -418 0
-380 379 -418 0
-380 -379 418 0
381 379 444 0
381 -379 -444 0
-381 379 -444 0
-381 -379 444 0
382 379 472 0
382 -379 -472 0
-382 379 -472 0
-382 -379 472 0
383 379 493 0
383 -379 -493 0
-383 379 -493 0
-383 -379 493 0
384 379 502 0
384 -379 -502 0
-384 379 -502 0
-384 -379 502 0
386 385 393 0
386 -385 -393 0
-386 385 -393 0
-386 -385 393 0
387 385 504 0
387 -385 -504 0
-387 385 -504 0
-387 -385 504 0
388 385 514 0
388 -385 -514 0
-388 385 -514 0
-388 -385 514 0
390 389 443 0
390 -389 -443 0
-390 389 -443 0
-390 -389 443 0
391 389 495 0
391 -389 -495 0
-391 389 -495 0
-391 -389 495 0
392 389 509 0
392 -389 -509 0
-392 389 -509 0
-392 -389 509 0
394 393 403 0
394 -393 -403 0
-394 393 -403 0
-394 -393 403 0
395 393 448 0
395 -393 -448 0
-395 393 -448 0
-395 -393 448 0
396 393 477 0
396 -393 -477 0
-396 393 -477 0
-396 -393 477 0
397 393 504 0
397 -393 -504 0
-397 393 -504 0
-397 -393 504 0
398 393 513 0
398 -393 -513 0
-398 393 -513 0
-398 -393 513 0
400 399 435 0
400 -399 -435 0
-400 399 -435 0
-400 -399 435 0
401 399 474 0
401 -399 -474 0
-401 399 -474 0
-401 -399 474 0
402 399 505 0
402 -399 -505 0
-402 399 -505 0
-402 -399 505 0
404 403 459 0
404 -403 -459 0
-404 403 -459 0
-404 -403 459 0
405 403 487 0
405 -403 -487 0
-405 403 -487 0
-405 -403 487 0
406 403 493 0
406 -403 -493 0
-406 403 -493 0
-406 -403 493 0
408 407 497 0
408 -407 -497 0
-408 407 -497 0
-408 -407 497 0
410 409 440 0
410 -409 -440 0
-410 409 -440 0
-410 -409 440 0
411 409 468 0
411 -409 -468 0
-411 409 -468 0
-411 -409 468 0
413 412 448 0
413 -412 -448 0
-413 412 -448 0
-413 -412 448 0
414 412 457 0
414 -412 -457 0
-414 412 -457 0
-414 -412 457 0
415 412 475 0
415 -412 -475 0
-415 412 -475 0
-415 -412 475 0
416 412 515 0
416 -412 -515 0
-416 412 -515 0
-416 -412 515 0
419 418 490 0
419 -418 -490 0
-419 418 -490 0
-419 -418 490 0
422 421 470 0
422 -421 -470 0
-422 421 -470 0
-422 -421 470 0
423 421 510 0
423 -421 -510 0
-423 421 -510 0
-423 -421 510 0
425 424 485 0
425 -424 -485 0
-425 424 -485 0
-425 -424 485 0
426 424 512 0
426 -424 -512 0
-426 424 -512 0
-426 -424 512 0
428 427 448 0
428 -427 -448 0
-428 427 -448 0
-428 -427 448 0
429 427 477 0
429 -427 -477 0
-429 427 -477 0
-429 -427 477 0
430 427 512 0
430 -427 -512 0
-430 427 -512 0
-430 -427 512 0
432 431 487 0
432 -431 -487 0
-432 431 -487 0
-432 -431 487 0
433 431 497 0
433 -431 -497 0
-433 431 -497 0
-433 -431 497 0
434 431 498 0
434 -431 -498 0
-434 431 -498 0
-434 -431 498 0
436 435 464 0
436 -435 -464 0
-436 435 -464 0
-436 -435 464 0
437 435 485 0
437 -435 -485 0
-437 435 -485 0
-437 -435 485 0
438 435 518 0
438 -435 -518 0
-438 435 -518 0
-438 -435 518 0
442 441 512 0
442 -441 -512 0
-442 441 -512 0
-442 -441 512 0
445 444 470 0
445 -444 -470 0
-445 444 -470 0
-445 -444 470 0
446 444 481 0
446 -444 -481 0
-446 444 -481 0
-446 -444 481 0
447 444 498 0
447 -444 -498 0
-447 444 -498 0
-447 -444 498 0
449 448 483 0
449 -448 -483 0
-449 448 -483 0
-449 -448 483 0
450 448 513 0
450 -448 -513 0
-450 448 -513 0
-450 -448 513 0
451 448 518 0
451 -448 -518 0
-451 448 -518 0
-451 -448 518 0
453 452 464 0
453 -452 -464 0
-453 452 -464 0
-453 -452 464 0
454 452 474 0
454 -452 -474 0
-454 452 -474 0
-454 -452 474 0
455 452 485 0
455 -452 -485 0
-455 452 -485 0
-455 -452 485 0
456 452 515 0
456 -452 -515 0
-456 452 -515 0
-456 -452 515 0
458 457 518 0
458 -457 -518 0
-458 457 -518 0
-458 -457 518 0
460 459 470 0
460 -459 -470 0
-460 459 -470 0
-460 -459 470 0
462 461 475 0
462 -461 -475 0
-462 461 -475 0
-462 -461 475 0
463 461 509 0
463 -461 -509 0
-463 461 -509 0
-463 -461 509 0
465 464 485 0
465 -464 -485 0
-465 464 -485 0
-465 -464 485 0
466 464 497 0
466 -464 -497 0
-466 464 -497 0
-466 -464 497 0
467 464 516 0
467 -464 -516 0
-467 464 -516 0
-467 -464 516 0
469 468 475 0
469 -468 -475 0
-469 468 -475 0
-469 -468 475 0
471 470 515 0
471 -470 -515 0
-471 470 -515 0
-471 -470 515 0
473 472 503 0
473 -472 -503 0
-473 472 -503 0
-473 -472 503 0
476 475 503 0
476 -475 -503 0
-476 475 -503 0
-476 -475 503 0
478 477 490 0
478 -477 -490 0
-478 477 -490 0
-478 -477 490 0
479 477 495 0
479 -477 -495 0
-479 477 -495 0
-479 -477 495 0
480 477 504 0
480 -477 -504 0
-480 477 -504 0
-480 -477 504 0
482 481 490 0
482 -481 -490 0
-482 481 -490 0
-482 -481 490 0
484 483 513 0
484 -483 -513 0
-484 483 -513 0
-484 -483 513 0
486 485 505 0
486 -485 -505 0
-486 485 -505 0
-486 -485 505 0
488 487 504 0
488 -487 -504 0
-488 487 -504 0
-488 -487 504 0
489 487 517 0
489 -487 -517 0
-489 487 -517 0
-489 -487 517 0
491 490 508 0
491 -490 -508 0
-491 490 -508 0
-491 -490 508 0
492 490 517 0
492 -490 -517 0
-492 490 -517 0
-492 -490 517 0
494 493 498 0
494 -493 -498 0
-494 493 -498 0
-494 -493 498 0
499 498 509 0
499 -498 -509 0
-499 498 -509 0
-499 -498 509 0
500 498 516 0
500 -498 -516 0
-500 498 -516 0
-500 -498 516 0
501 498 518 0
501 -498 -518 0
-501 498 -518 0
-501 -498 518 0
506 505 515 0
506 -505 -515 0
-506 505 -515 0
-506 -505 515 0
507 505 516 0
507 -505 -516 0
-507 505 -516 0
-507 -505 516 0
511 510 514 0
511 -510 -514 0
-511 510 -514 0
-511 -510 514 0
